SCIP Status        : solving was interrupted [time limit reached]
Total Time         :    3600.00
  solving          :    3600.00
  presolving       :       0.24 (included in solving)
  reading          :       0.00
  copying          :       0.62 (34 #copies) (minimal 0.00, maximal 0.04, average 0.02)
Original Problem   :
  Problem name     : bbbenchmark/g05_60.7.cut
  Variables        : 61 (60 binary, 0 integer, 0 implicit integer, 1 continuous)
  Constraints      : 1 initial, 1 maximal
  Objective        : minimize, 1 non-zeros (abs.min = 1, abs.max = 1)
Presolved Problem  :
  Problem name     : t_bbbenchmark/g05_60.7.cut
  Variables        : 946 (60 binary, 0 integer, 885 implicit integer, 1 continuous)
  Constraints      : 886 initial, 6962 maximal
  Objective        : minimize, 1 non-zeros (abs.min = 1, abs.max = 1)
  Nonzeros         : 3601 constraint, 122 clique table
Presolvers         :   ExecTime  SetupTime  Calls  FixedVars   AggrVars   ChgTypes  ChgBounds   AddHoles    DelCons    AddCons   ChgSides   ChgCoefs
  boundshift       :       0.00       0.00      0          0          0          0          0          0          0          0          0          0
  convertinttobin  :       0.00       0.00      0          0          0          0          0          0          0          0          0          0
  domcol           :       0.00       0.00      1          0          0          0          0          0          0          0          0          0
  dualagg          :       0.00       0.00      0          0          0          0          0          0          0          0          0          0
  dualcomp         :       0.00       0.00      1          0          0          0          0          0          0          0          0          0
  dualinfer        :       0.00       0.00      0          0          0          0          0          0          0          0          0          0
  dualsparsify     :       0.00       0.00      1          0          0          0          0          0          0          0          0          0
  gateextraction   :       0.00       0.00      0          0          0          0          0          0          0          0          0          0
  implics          :       0.00       0.00      2          0          0          0          0          0          0          0          0          0
  inttobinary      :       0.00       0.00      0          0          0          0          0          0          0          0          0          0
  qpkktref         :       0.00       0.00      0          0          0          0          0          0          0          0          0          0
  redvub           :       0.00       0.00      0          0          0          0          0          0          0          0          0          0
  sparsify         :       0.00       0.00      1          0          0          0          0          0          0          0          0          0
  stuffing         :       0.00       0.00      0          0          0          0          0          0          0          0          0          0
  trivial          :       0.00       0.00      4          0          0          0          0          0          0          0          0          0
  tworowbnd        :       0.00       0.00      0          0          0          0          0          0          0          0          0          0
  dualfix          :       0.00       0.00      4          0          0          0          0          0          0          0          0          0
  genvbounds       :       0.00       0.00      0          0          0          0          0          0          0          0          0          0
  probing          :       0.10       0.00      1          0          0          0          0          0          0          0          0          0
  pseudoobj        :       0.00       0.00      1          0          0          0          1          0          0          0          0          0
  symmetry         :       0.00       0.00      0          0          0          0          0          0          0          0          0          0
  vbounds          :       0.00       0.00      1          0          0          0          0          0          0          0          0          0
  and              :       0.00       0.01      2          0          0          0          0          0          0          0          0          0
  linear           :       0.00       0.00      2          0          0          0          0          0          0          0          0          0
  logicor          :       0.00       0.00      0          0          0          0          0          0          0          0          0          0
  nonlinear        :       0.14       0.00      5          0          0          0          1          0          0        885          0          0
  benders          :       0.00       0.00      0          0          0          0          0          0          0          0          0          0
  components       :       0.00       0.00      1          0          0          0          0          0          0          0          0          0
  root node        :          -          -      -          0          -          -         50          -          -          -          -          -
Constraints        :     Number  MaxNumber  #Separate #Propagate    #EnfoLP    #EnfoRelax  #EnfoPS    #Check   #ResProp    Cutoffs    DomReds       Cuts    Applied      Conss   Children
  benderslp        :          0          0          0          0      66747          0          0       3276          0          0          0          0          0          0          0
  integral         :          0          0          0          0      66747          0          0       3276          0          0       9814          0          0       3972     127946
  and              :        885        885      77165     427234         13          0          0         29      87135          7    2418805       7553       6857          0          0
  linear           :          1+         3        181     427227         13          0          0         27          0          0          0          0          0          0          0
  logicor          :          0+      6076          0     116811          0          0          0          0        716        524        173          0          0          0          0
  benders          :          0          0          0          0         13          0          0         30          0          0          0          0          0          0          0
  countsols        :          0          0          0          0         13          0          0         30          0          0          0          0          0          0          0
  components       :          0          0          0          0          0          0          0          0          0          0          0          0          0          0          0
Constraint Timings :  TotalTime  SetupTime   Separate  Propagate     EnfoLP     EnfoPS     EnfoRelax   Check    ResProp    SB-Prop
  benderslp        :       0.02       0.00       0.00       0.00       0.02       0.00       0.00       0.00       0.00       0.00
  integral         :      57.04       0.00       0.00       0.00      57.03       0.00       0.00       0.01       0.00       0.00
  and              :      38.73       0.01      23.72      14.47       0.00       0.00       0.00       0.00       0.11       0.42
  linear           :       0.43       0.00       0.04       0.38       0.00       0.00       0.00       0.00       0.00       0.01
  logicor          :      11.83       0.00       0.00      11.80       0.00       0.00       0.00       0.00       0.01       0.02
  benders          :       0.00       0.00       0.00       0.00       0.00       0.00       0.00       0.00       0.00       0.00
  countsols        :       0.00       0.00       0.00       0.00       0.00       0.00       0.00       0.00       0.00       0.00
  components       :       0.17       0.00       0.00       0.17       0.00       0.00       0.00       0.00       0.00       0.00
Propagators        : #Propagate   #ResProp    Cutoffs    DomReds
  dualfix          :          4          0          0          0
  genvbounds       :          0          0          0          0
  nlobbt           :          0          0          0          0
  obbt             :          0          0          0          0
  probing          :          0          0          0          0
  pseudoobj        :     355436          0          0         51
  redcost          :     167475          0          0     458291
  rootredcost      :         22          0          0          0
  symmetry         :          0          0          0          0
  vbounds          :      36617          0          0          0
Propagator Timings :  TotalTime  SetupTime   Presolve  Propagate    ResProp    SB-Prop
  dualfix          :       0.00       0.00       0.00       0.00       0.00       0.00
  genvbounds       :       0.28       0.00       0.00       0.26       0.00       0.02
  nlobbt           :       0.00       0.00       0.00       0.00       0.00       0.00
  obbt             :       0.00       0.00       0.00       0.00       0.00       0.00
  probing          :       0.10       0.00       0.10       0.00       0.00       0.00
  pseudoobj        :       0.46       0.00       0.00       0.46       0.00       0.00
  redcost          :       5.98       0.00       0.00       5.98       0.00       0.00
  rootredcost      :       0.43       0.00       0.00       0.43       0.00       0.00
  symmetry         :       0.17       0.00       0.00       0.17       0.00       0.00
  vbounds          :       0.22       0.00       0.00       0.21       0.00       0.01
Conflict Analysis  :       Time      Calls    Success    DomReds  Conflicts   Literals    Reconvs ReconvLits   Dualrays   Nonzeros   LP Iters   (pool size: [10000,10000])
  propagation      :       0.00        531        374          -        427       25.1          0        0.0          -          -          -
  infeasible LP    :       0.00          0          0          -          0        0.0          0        0.0          2       32.5          0
  bound exceed. LP :      12.36       9107       6671          -      41295       30.5          7       24.0          0        0.0      45882
  strong branching :       0.00          0          0          -          0        0.0          0        0.0          -          -          0
  pseudo solution  :       0.00          0          0          -          0        0.0          0        0.0          -          -          -
  applied globally :       0.18          -          -          0      15153       30.5          -          -          2          -          -
  applied locally  :          -          -          -          0          0        0.0          -          -          0          -          -
Separators         :   ExecTime  SetupTime      Calls  RootCalls    Cutoffs    DomReds  FoundCuts ViaPoolAdd  DirectAdd    Applied ViaPoolApp  DirectApp      Conss
  cut pool         :       2.37          -      12420        216          -          -      19219     431580          -          -          -          -          -    (maximal pool size:       1331)
  aggregation      :     439.80       0.00       4748        181          0          0         14          9          0          8          8          0          0
  > cmir           :          -          -          -          -          -          -          -          9          0          8          8          0          -
  > flowcover      :          -          -          -          -          -          -          -          0          0          0          0          0          -
  > knapsackcover  :          -          -          -          -          -          -          -          0          0          0          0          0          -
  cgmip            :       0.00       0.00          0          0          0          0          0          0          0          0          0          0          0
  clique           :       0.02       0.00        181        181          0          0          0          0          0          0          0          0          0
  closecuts        :       0.00       0.00          0          0          0          0          0          0          0          0          0          0          0
  convexproj       :       0.00       0.00          0          0          0          0          0          0          0          0          0          0          0
  disjunctive      :       0.00       0.00          0          0          0          0          0          0          0          0          0          0          0
  eccuts           :       0.00       0.00          0          0          0          0          0          0          0          0          0          0          0
  gauge            :       0.00       0.00          0          0          0          0          0          0          0          0          0          0          0
  gomory           :       0.00       0.00          0          0          0          0          0          0          0          0          0          0          0
  > gomorymi       :          -          -          -          -          -          -          -          0          0          0          0          0          -
  > strongcg       :          -          -          -          -          -          -          -          0          0          0          0          0          -
  impliedbounds    :       0.08       0.00       4748        181          0          0         41          0          0          0          0          0          0
  interlattice     :       0.18       0.00         80         80          0          0         80          0         80         79          0         79          0
  interminor       :       0.00       0.00          0          0          0          0          0          0          0          0          0          0          0
  intersub         :       0.48       0.00         40         40          0          0         40          0         40         40          0         40          0
  intobj           :       0.00       0.00          0          0          0          0          0          0          0          0          0          0          0
  mcf              :       0.00       0.00          1          1          0          0          0          0          0          0          0          0          0
  minor            :       0.02       0.00          0          0          0          0          0          0          0          0          0          0          0
  mixing           :       0.00       0.00       4748        181          0          0          0          0          0          0          0          0          0
  oddcycle         :       0.00       0.00          0          0          0          0          0          0          0          0          0          0          0
  rapidlearning    :       0.01       0.00          0          0          0          0          0          0          0          0          0          0          0
  rlt              :       0.00       0.00         10         10          0          0          0          0          0          0          0          0          0
  zerohalf         :      25.38       0.00       3711         20          0          0      19164     431571          0      56205      56205          0          0
Cutselectors       :   ExecTime  SetupTime      Calls  RootCalls   Selected     Forced   Filtered  RootSelec   RootForc   RootFilt 
  hybrid           :       0.30       0.00      12077        179      63189          0     376064        324          0         32
Pricers            :   ExecTime  SetupTime      Calls       Vars
  problem variables:       0.00          -          0          0
Branching Rules    :   ExecTime  SetupTime   BranchLP  BranchExt   BranchPS    Cutoffs    DomReds       Cuts      Conss   Children
  allfullstrong    :       0.00       0.00          0          0          0          0          0          0          0          0
  cloud            :       0.00       0.00          0          0          0          0          0          0          0          0
  distribution     :       0.00       0.00          0          0          0          0          0          0          0          0
  fullstrong       :       0.00       0.00          0          0          0          0          0          0          0          0
  inference        :       0.00       0.00          0          0          0          0          0          0          0          0
  leastinf         :       0.00       0.00          0          0          0          0          0          0          0          0
  lookahead        :       0.00       0.00          0          0          0          0          0          0          0          0
  mostinf          :       0.00       0.00          0          0          0          0          0          0          0          0
  multaggr         :       0.00       0.00          0          0          0          0          0          0          0          0
  nodereopt        :       0.00       0.00          0          0          0          0          0          0          0          0
  pscost           :       0.00       0.00          0          0          0          0          0          0          0          0
  random           :       0.00       0.00          0          0          0          0          0          0          0          0
  relpscost        :      56.92       0.00      66734          0          0          0       9814          0       3980     127946
  vanillafullstrong:       0.00       0.00          0          0          0          0          0          0          0          0
Primal Heuristics  :   ExecTime  SetupTime      Calls      Found       Best
  LP solutions     :       0.01          -          -         13         13
  relax solutions  :       0.00          -          -          0          0
  pseudo solutions :       0.00          -          -          0          0
  strong branching :       0.02          -          -          0          0
  actconsdiving    :       0.00       0.00          0          0          0
  adaptivediving   :      12.87       0.00        452          2          2
  alns             :       1.62       0.00         21          2          2
  bound            :       0.00       0.00          0          0          0
  clique           :       0.01       0.00          1          0          0
  coefdiving       :       0.00       0.00          0          0          0
  completesol      :       0.00       0.00          0          0          0
  conflictdiving   :       5.18       0.00        226          0          0
  crossover        :       0.00       0.00          0          0          0
  dins             :       0.00       0.00          0          0          0
  distributiondivin:      13.71       0.00        226          0          0
  dps              :       0.00       0.00          0          0          0
  dualval          :       0.00       0.00          0          0          0
  farkasdiving     :       0.00       0.00          0          0          0
  feaspump         :       0.00       0.00          0          0          0
  fixandinfer      :       0.00       0.00          0          0          0
  fracdiving       :       6.62       0.00        227          0          0
  gins             :       0.00       0.00          0          0          0
  guideddiving     :       6.71       0.00        227          0          0
  indicator        :       0.09       0.00          0          0          0
  indicatordiving  :       0.00       0.00          0          0          0
  intdiving        :       0.00       0.00          0          0          0
  intshifting      :       0.10       0.00         14          0          0
  linesearchdiving :       6.58       0.00        227          0          0
  localbranching   :       0.00       0.00          0          0          0
  locks            :       0.00       0.00          1          0          0
  lpface           :       0.09       0.00          0          0          0
  mpec             :       3.04       0.00          1          0          0
  multistart       :       0.00       0.00          0          0          0
  mutation         :       0.00       0.00          0          0          0
  nlpdiving        :       4.83       0.00          9          0          0
  objpscostdiving  :      11.01       0.00         34          5          2
  octane           :       0.00       0.00          0          0          0
  ofins            :       0.08       0.00          0          0          0
  oneopt           :       0.10       0.00         30          0          0
  padm             :       0.00       0.00          0          0          0
  proximity        :       0.00       0.00          0          0          0
  pscostdiving     :       7.98       0.00        227          1          1
  randrounding     :       0.45       0.00       3242          0          0
  rens             :       0.00       0.00          0          0          0
  reoptsols        :       0.00       0.00          0          0          0
  repair           :       0.00       0.00          0          0          0
  rins             :       5.35       0.00         14          4          3
  rootsoldiving    :       4.58       0.00         13          0          0
  rounding         :       0.66       0.00       3848          0          0
  shiftandpropagate:       0.00       0.00          0          0          0
  shifting         :      16.06       0.00       7502         10          6
  simplerounding   :       0.07       0.00          0          0          0
  subnlp           :      56.17       0.00          0          0          0
  trivial          :       0.00       0.00          2          2          2
  trivialnegation  :       0.00       0.00          0          0          0
  trustregion      :       0.00       0.00          0          0          0
  trysol           :       0.11       0.00          0          0          0
  twoopt           :       0.00       0.00          0          0          0
  undercover       :       1.00       0.00          1          1          1
  vbounds          :       0.00       0.00          0          0          0
  veclendiving     :       4.09       0.00        227          0          0
  zeroobj          :       0.00       0.00          0          0          0
  zirounding       :       0.26       0.00       1000          0          0
  other solutions  :          -          -          -          0          -
Diving (single)    :      Calls      Nodes   LP Iters Backtracks  Conflicts   MinDepth   MaxDepth   AvgDepth  RoundSols  NLeafSols  MinSolDpt  MaxSolDpt  AvgSolDpt
  actconsdiving    :          0          -          -          -          -          -          -          -          -          -          -          -          -
  coefdiving       :          0          -          -          -          -          -          -          -          -          -          -          -          -
  conflictdiving   :        226       3991      41021        232       3398         18         47       31.1          0          -          -          -          -
  distributiondivin:        226       2703      80447        373       3232         20         36       25.0          0          -          -          -          -
  farkasdiving     :          0          -          -          -          -          -          -          -          -          -          -          -          -
  fracdiving       :        227      23045      57640        163       1386         25        236      115.4          0          -          -          -          -
  guideddiving     :        227      21666      61471        150       1219         28        176      109.3          0          -          -          -          -
  indicatordiving  :          0          -          -          -          -          -          -          -          -          -          -          -          -
  linesearchdiving :        227       5720      58745        268       4121         22         52       38.5          0          -          -          -          -
  pscostdiving     :        227       3768      75852        233       3675         23         44       30.1          0          1         44         44       44.0
  veclendiving     :        227       4214      27278        234       3552         19         47       32.2          0          -          -          -          -
Diving (adaptive)  :      Calls      Nodes   LP Iters Backtracks  Conflicts   MinDepth   MaxDepth   AvgDepth  RoundSols  NLeafSols  MinSolDpt  MaxSolDpt  AvgSolDpt
  actconsdiving    :         51        633      20449        101        811         21         32       24.7          0          2         32         32       32.0
  coefdiving       :        108       1885      14074        112       1886         19         39       30.8          0          -          -          -          -
  conflictdiving   :          0          -          -          -          -          -          -          -          -          -          -          -          -
  distributiondivin:          0          -          -          -          -          -          -          -          -          -          -          -          -
  farkasdiving     :          0          -          -          -          -          -          -          -          -          -          -          -          -
  fracdiving       :         37       4520       8324         24        166         44        296      136.3          0          -          -          -          -
  guideddiving     :         41       4223       9690         22        186         28        159      117.4          0          -          -          -          -
  indicatordiving  :          0          -          -          -          -          -          -          -          -          -          -          -          -
  linesearchdiving :         59       1548      16524         78       1139         25         51       39.4          0          -          -          -          -
  pscostdiving     :         71       1200      22701         72       1149         23         39       30.6          0          -          -          -          -
  veclendiving     :         85       1546       7183         87       1226         22         41       31.7          0          -          -          -          -
Neighborhoods      :      Calls  SetupTime  SolveTime SolveNodes       Sols       Best       Exp3  EpsGreedy        UCB TgtFixRate  Opt  Inf Node Stal  Sol  Usr Othr Actv
  rens             :          2       0.02       0.00          0          0          0    0.00000   -1.00000    0.29973      0.700    0    1    0    0    0    0    1    1
  rins             :          2       0.03       0.00          0          0          0    0.00000   -1.00000    0.29973      0.700    0    1    0    0    0    0    1    1
  mutation         :          5       0.14       0.42        122          2          2    0.00000   -1.00000    0.49487      0.585    1    2    0    2    0    0    0    1
  localbranching   :          2       0.10       0.00          1          0          0    0.00000   -1.00000    0.54831      0.550    0    2    0    0    0    0    0    1
  crossover        :          2       0.07       0.01          1          0          0    0.00000   -1.00000    0.54831      0.550    0    2    0    0    0    0    0    1
  proximity        :          3       0.13       0.26         64          0          0    0.00000   -1.00000    0.45661      0.662    0    2    0    1    0    0    0    1
  zeroobjective    :          3       0.10       0.09         57          0          0    0.00000   -1.00000    0.46188      0.662    0    2    0    1    0    0    0    1
  dins             :          2       0.07       0.02          1          0          0    0.00000   -1.00000    0.54831      0.550    0    2    0    0    0    0    0    1
  trustregion      :          0       0.00       0.00          0          0          0    0.00000   -1.00000    1.00000      0.900    0    0    0    0    0    0    0    0
Expressions        :   #IntEval  IntEvalTi   #RevProp  RevPropTi    DomReds    Cutoffs  #Estimate  EstimTime  Branching  #Simplify SimplifyTi Simplified
  pow              :          0       0.00          0       0.00          0          0          0       0.00          0          0       0.00          0
  prod             :       3540       0.00          0       0.00          0          0          0       0.00          0       2655       0.01          0
  sum              :          8       0.00          2       0.00          0          0          0       0.00          0          3       0.00          2
  var              :       3327       0.00          0       0.00          0          0          0       0.00          0       6378       0.01          0
  varidx           :          0       0.00          0       0.00          0          0          0       0.00          0          0       0.00          0
LP                 :       Time      Calls Iterations  Iter/call   Iter/sec  Time-0-It Calls-0-It    ItLimit
  primal LP        :     162.47      12651          0       0.00       0.00     162.41      12651
  dual LP          :    2583.38     161061   20616547     148.19    7980.45       7.12      21941
  lex dual LP      :       0.00          0          0       0.00          -
  barrier LP       :       0.00          0          0       0.00          -       0.00          0
  resolve instable :       0.00          0          0       0.00          -
  diving/probing LP:      59.31       5890     617147     104.78   10405.45
  strong branching :      38.43       4439     427232      96.25   11117.15          -          -         67
    (at root node) :          -         19       9396     494.53          -
  conflict analysis:       6.90       4637      45882       9.89    6649.57
NLP relaxation     :
  solve time       :       4.83 (9 calls)
  convexity        :  nonconvex (1 linear rows, 0 convex ineq., 0 nonconvex ineq., 885 nonlinear eq. or two-sided ineq.)
NLP Solvers        :  #Problems  ProblemTi    #Solves  SolveTime      #Iter  Time/Iter      #Okay #TimeLimit #IterLimit #LObjLimit #Interrupt  #NumError #EvalError  #OutOfMem #LicenseEr #OtherTerm   #GlobOpt    #LocOpt  #Feasible #LocInfeas #GlobInfea #Unbounded   #Unknown
  ipopt            :          2       3.72         12       7.89        428       0.02         12          0          0          0          0          0          0          0          0          0          0          0          0          3          0          0          9
B&B Tree           :
  number of runs   :          1
  nodes            :     124356 (63973 internal, 60383 leaves)
  feasible leaves  :         13
  infeas. leaves   :         73
  objective leaves :      60296
  nodes (total)    :     124356 (63973 internal, 60383 leaves)
  nodes left       :       3573
  max depth        :         32
  max depth (total):         32
  backtracks       :      32850 (26.4%)
  early backtracks :          0 (0.0%)
  nodes exc. ref.  :          0 (0.0%)
  delayed cutoffs  :          4
  repropagations   :       1216 (807 domain reductions, 0 cutoffs)
  avg switch length:       4.37
  switching time   :     184.88
Estim. Tree Size   :     281352
Estimation Tree    : 127947 nodes (124374 visited, 63973 internal, 60401 leaves, 3573 open), weight: 0.4060 completed 0.6175
Estimations        :      estim      value      trend resolution     smooth
  wbe              :     297576          -          -          -          -
  tree-profile     :         -1          -          -          -          -
  gap              :     403390    0.94146    0.00003         64     395129
  tree-weight      :     281352    0.40595    0.00047         64     277702
  leaf-frequency   :     501802    0.48564    0.00000         64     489116
  ssg              :     282681    0.26005   -0.00021         64     281253
  open-nodes       :     510468 3573.00000   -1.17339         64     488127
Root Node          :
  First LP value   : -1.00000000000000e+00
  First LP Iters   :        610 (20333.33 Iter/sec)
  First LP Time    :       0.03
  Final Dual Bound : -8.74186257286039e-01
  Final Root Iters :       6448
  Root LP Estimate : -5.42021833239393e-01
Solution           :
  Solutions found  :         40 (32 improvements)
  First Solution   : +1.00000000000000e+05   (in run 1, after 0 nodes, 0.06 seconds, depth 0, found by <trivial>)
  Gap First Sol.   :   infinite
  Gap Last Sol.    :      20.42 %
  Primal Bound     : -6.04519774011300e-01   (in run 1, after 23832 nodes, 800.37 seconds, depth 24, found by <rins>)
  Dual Bound       : -6.42111974262398e-01
  Gap              :       6.22 %
Integrals          :      Total       Avg%
  primal-dual      :   46268.32      12.85
  primal-ref       :          -          - (not evaluated)
  dual-ref         :          -          - (not evaluated)
